c File: instances/30_0.55_3.col
c
c Description: Random graph of size 30 vertices and P(0.5499999999999999) of edges between any two vertices.
p col 30 435
e 1 2
e 1 6
e 1 8
e 1 11
e 1 13
e 1 14
e 1 15
e 1 16
e 1 19
e 1 21
e 1 22
e 1 23
e 1 24
e 1 25
e 1 29
e 1 30
e 2 5
e 2 6
e 2 7
e 2 9
e 2 10
e 2 12
e 2 13
e 2 14
e 2 17
e 2 18
e 2 19
e 2 21
e 2 26
e 2 27
e 2 28
e 2 29
e 2 30
e 3 4
e 3 6
e 3 9
e 3 10
e 3 12
e 3 13
e 3 16
e 3 17
e 3 18
e 3 22
e 3 23
e 3 24
e 3 25
e 3 26
e 3 28
e 3 30
e 4 7
e 4 8
e 4 9
e 4 10
e 4 12
e 4 14
e 4 15
e 4 16
e 4 18
e 4 22
e 4 23
e 4 25
e 4 28
e 4 29
e 4 30
e 5 9
e 5 12
e 5 13
e 5 14
e 5 20
e 5 22
e 5 23
e 5 24
e 5 25
e 5 29
e 6 10
e 6 11
e 6 12
e 6 15
e 6 18
e 6 19
e 6 20
e 6 24
e 6 28
e 6 29
e 6 30
e 7 8
e 7 9
e 7 10
e 7 11
e 7 14
e 7 16
e 7 17
e 7 18
e 7 19
e 7 20
e 7 21
e 7 22
e 7 24
e 7 25
e 7 26
e 7 30
e 8 9
e 8 11
e 8 12
e 8 14
e 8 15
e 8 16
e 8 18
e 8 19
e 8 20
e 8 22
e 8 25
e 8 27
e 8 28
e 8 29
e 8 30
e 9 13
e 9 14
e 9 16
e 9 17
e 9 18
e 9 19
e 9 22
e 9 23
e 9 25
e 9 26
e 9 27
e 9 28
e 10 11
e 10 12
e 10 13
e 10 17
e 10 18
e 10 19
e 10 20
e 10 22
e 10 23
e 10 25
e 10 28
e 10 30
e 11 12
e 11 13
e 11 15
e 11 16
e 11 18
e 11 20
e 11 21
e 11 25
e 11 28
e 11 29
e 11 30
e 12 13
e 12 16
e 12 17
e 12 19
e 12 22
e 12 23
e 12 24
e 12 25
e 12 26
e 12 27
e 12 29
e 13 14
e 13 19
e 13 20
e 13 21
e 13 23
e 13 24
e 13 25
e 13 26
e 13 27
e 13 28
e 13 29
e 14 15
e 14 16
e 14 17
e 14 18
e 14 20
e 14 21
e 14 22
e 14 23
e 14 26
e 14 27
e 14 29
e 14 30
e 15 17
e 15 21
e 15 22
e 15 23
e 15 24
e 15 26
e 15 27
e 15 29
e 15 30
e 16 17
e 16 18
e 16 19
e 16 23
e 16 24
e 16 25
e 16 27
e 16 28
e 16 29
e 16 30
e 17 18
e 17 20
e 17 24
e 17 25
e 17 28
e 17 29
e 18 20
e 18 21
e 18 22
e 18 23
e 18 24
e 18 30
e 19 20
e 19 21
e 19 22
e 19 24
e 19 27
e 19 29
e 19 30
e 20 21
e 20 24
e 20 26
e 20 27
e 20 30
e 21 25
e 21 26
e 21 28
e 21 30
e 22 26
e 22 27
e 22 30
e 23 24
e 23 25
e 24 28
e 24 30
e 25 26
e 25 27
e 25 29
e 26 27
e 27 28
e 29 30